DIMENSION: 9
EDGE_WEIGHT_TYPE: EXPLICIT
EDGE_WEIGHT_FORMAT: FULL_MATRIX
EDGE_WEIGHT_SECTION:
32767 98 41 34 39 34 76 90 75 
98 32767 32767 16 34 27 77 4 32767 
41 32767 32767 13 52 39 16 80 70 
34 16 13 32767 28 32767 17 94 64 
39 34 52 28 32767 97 93 62 10 
34 27 39 32767 97 32767 7 29 32767 
76 77 16 17 93 7 32767 90 30 
90 4 80 94 62 29 90 32767 32767 
75 32767 70 64 10 32767 30 32767 32767 
EOF